p edge 75 842
e 1 3
e 1 4
e 1 7
e 1 11
e 1 12
e 1 13
e 1 14
e 1 15
e 1 19
e 1 21
e 1 23
e 1 26
e 1 27
e 1 29
e 1 30
e 1 33
e 1 34
e 1 36
e 1 37
e 1 38
e 1 39
e 1 41
e 1 48
e 1 50
e 1 55
e 1 61
e 1 64
e 1 69
e 1 72
e 2 6
e 2 7
e 2 9
e 2 11
e 2 12
e 2 14
e 2 17
e 2 20
e 2 23
e 2 28
e 2 32
e 2 38
e 2 40
e 2 41
e 2 45
e 2 48
e 2 49
e 2 50
e 2 51
e 2 53
e 2 59
e 2 60
e 2 63
e 2 65
e 2 68
e 2 70
e 2 71
e 2 73
e 3 8
e 3 9
e 3 10
e 3 18
e 3 23
e 3 24
e 3 26
e 3 30
e 3 32
e 3 36
e 3 37
e 3 38
e 3 40
e 3 44
e 3 45
e 3 46
e 3 48
e 3 49
e 3 51
e 3 53
e 3 54
e 3 60
e 4 10
e 4 11
e 4 14
e 4 16
e 4 19
e 4 20
e 4 23
e 4 30
e 4 32
e 4 38
e 4 41
e 4 42
e 4 43
e 4 46
e 4 53
e 4 54
e 4 60
e 4 62
e 4 64
e 4 65
e 4 73
e 4 75
e 5 7
e 5 8
e 5 11
e 5 13
e 5 16
e 5 18
e 5 19
e 5 20
e 5 23
e 5 27
e 5 29
e 5 33
e 5 35
e 5 37
e 5 38
e 5 39
e 5 42
e 5 46
e 5 49
e 5 51
e 5 52
e 5 53
e 5 59
e 5 60
e 5 63
e 5 64
e 5 65
e 5 70
e 5 72
e 5 73
e 5 75
e 6 13
e 6 16
e 6 17
e 6 18
e 6 20
e 6 21
e 6 22
e 6 23
e 6 25
e 6 26
e 6 30
e 6 33
e 6 36
e 6 37
e 6 40
e 6 47
e 6 50
e 6 53
e 6 60
e 6 64
e 6 65
e 6 66
e 7 8
e 7 14
e 7 17
e 7 18
e 7 20
e 7 24
e 7 28
e 7 29
e 7 30
e 7 31
e 7 35
e 7 36
e 7 37
e 7 38
e 7 39
e 7 40
e 7 45
e 7 51
e 7 53
e 7 60
e 7 63
e 7 67
e 7 68
e 7 72
e 7 74
e 8 14
e 8 16
e 8 19
e 8 22
e 8 24
e 8 31
e 8 32
e 8 34
e 8 41
e 8 42
e 8 43
e 8 51
e 8 54
e 8 56
e 8 59
e 8 60
e 8 63
e 8 64
e 8 68
e 8 70
e 8 72
e 8 73
e 9 12
e 9 22
e 9 29
e 9 31
e 9 34
e 9 39
e 9 40
e 9 41
e 9 42
e 9 43
e 9 44
e 9 45
e 9 47
e 9 50
e 9 56
e 9 57
e 9 61
e 9 64
e 9 66
e 9 67
e 9 68
e 9 69
e 10 14
e 10 16
e 10 21
e 10 24
e 10 25
e 10 35
e 10 36
e 10 38
e 10 43
e 10 45
e 10 48
e 10 50
e 10 52
e 10 56
e 10 69
e 10 70
e 10 72
e 11 13
e 11 18
e 11 22
e 11 23
e 11 24
e 11 25
e 11 31
e 11 34
e 11 37
e 11 39
e 11 42
e 11 43
e 11 47
e 11 51
e 11 54
e 11 56
e 11 57
e 11 59
e 11 71
e 11 72
e 11 73
e 12 14
e 12 15
e 12 16
e 12 18
e 12 20
e 12 21
e 12 26
e 12 28
e 12 43
e 12 47
e 12 48
e 12 54
e 12 57
e 12 58
e 12 59
e 12 61
e 12 62
e 12 63
e 12 70
e 12 72
e 12 73
e 13 18
e 13 20
e 13 21
e 13 29
e 13 32
e 13 35
e 13 42
e 13 43
e 13 50
e 13 52
e 13 57
e 13 58
e 13 60
e 13 61
e 13 66
e 13 67
e 13 74
e 14 22
e 14 23
e 14 32
e 14 35
e 14 36
e 14 39
e 14 47
e 14 49
e 14 56
e 14 58
e 14 62
e 14 63
e 14 64
e 14 67
e 14 69
e 15 17
e 15 18
e 15 19
e 15 28
e 15 29
e 15 30
e 15 31
e 15 47
e 15 49
e 15 50
e 15 54
e 15 60
e 15 66
e 15 68
e 15 73
e 15 75
e 16 18
e 16 24
e 16 26
e 16 27
e 16 28
e 16 29
e 16 38
e 16 40
e 16 44
e 16 45
e 16 48
e 16 53
e 16 54
e 16 56
e 16 58
e 16 63
e 16 65
e 16 67
e 16 71
e 16 74
e 17 26
e 17 27
e 17 29
e 17 33
e 17 34
e 17 38
e 17 40
e 17 41
e 17 45
e 17 46
e 17 47
e 17 51
e 17 52
e 17 55
e 17 62
e 17 63
e 17 65
e 17 72
e 18 20
e 18 22
e 18 24
e 18 25
e 18 26
e 18 31
e 18 32
e 18 35
e 18 37
e 18 43
e 18 49
e 18 55
e 18 58
e 18 59
e 18 65
e 18 66
e 18 68
e 18 72
e 18 74
e 19 22
e 19 23
e 19 24
e 19 25
e 19 35
e 19 45
e 19 49
e 19 53
e 19 58
e 19 61
e 19 64
e 19 65
e 19 69
e 19 74
e 20 23
e 20 24
e 20 28
e 20 30
e 20 31
e 20 39
e 20 46
e 20 48
e 20 50
e 20 53
e 20 57
e 20 60
e 20 61
e 20 62
e 20 71
e 20 73
e 20 75
e 21 23
e 21 25
e 21 29
e 21 31
e 21 33
e 21 38
e 21 41
e 21 44
e 21 47
e 21 48
e 21 49
e 21 58
e 21 64
e 21 65
e 21 67
e 21 69
e 22 23
e 22 25
e 22 27
e 22 29
e 22 40
e 22 46
e 22 47
e 22 48
e 22 58
e 22 59
e 22 65
e 22 66
e 22 72
e 22 75
e 23 27
e 23 35
e 23 37
e 23 44
e 23 46
e 23 47
e 23 52
e 23 56
e 23 62
e 23 65
e 23 67
e 23 70
e 23 71
e 23 72
e 23 74
e 23 75
e 24 28
e 24 31
e 24 32
e 24 34
e 24 37
e 24 40
e 24 42
e 24 51
e 24 53
e 24 57
e 24 60
e 24 62
e 24 63
e 24 66
e 24 70
e 24 73
e 25 26
e 25 27
e 25 30
e 25 32
e 25 33
e 25 36
e 25 41
e 25 46
e 25 51
e 25 52
e 25 55
e 25 56
e 25 58
e 25 60
e 25 63
e 25 65
e 25 66
e 25 67
e 25 70
e 25 75
e 26 34
e 26 38
e 26 40
e 26 42
e 26 43
e 26 46
e 26 50
e 26 51
e 26 52
e 26 54
e 26 71
e 26 75
e 27 31
e 27 34
e 27 36
e 27 37
e 27 38
e 27 39
e 27 42
e 27 45
e 27 48
e 27 56
e 27 59
e 27 62
e 27 70
e 27 71
e 27 74
e 28 31
e 28 33
e 28 36
e 28 39
e 28 40
e 28 42
e 28 53
e 28 54
e 28 55
e 28 57
e 28 59
e 28 66
e 28 68
e 28 75
e 29 31
e 29 33
e 29 35
e 29 38
e 29 47
e 29 49
e 29 53
e 29 63
e 29 65
e 29 68
e 29 69
e 29 70
e 29 71
e 30 35
e 30 37
e 30 39
e 30 43
e 30 46
e 30 49
e 30 50
e 30 64
e 30 70
e 30 73
e 31 33
e 31 34
e 31 35
e 31 36
e 31 37
e 31 43
e 31 47
e 31 48
e 31 57
e 31 59
e 31 69
e 31 72
e 31 73
e 32 33
e 32 35
e 32 38
e 32 40
e 32 52
e 32 57
e 32 65
e 32 69
e 32 72
e 32 74
e 33 35
e 33 36
e 33 40
e 33 41
e 33 50
e 33 57
e 33 69
e 33 73
e 33 74
e 34 44
e 34 45
e 34 46
e 34 49
e 34 51
e 34 57
e 34 60
e 34 63
e 34 66
e 34 67
e 34 75
e 35 44
e 35 46
e 35 50
e 35 51
e 35 55
e 35 57
e 35 59
e 35 62
e 35 64
e 35 69
e 36 39
e 36 44
e 36 46
e 36 47
e 36 48
e 36 50
e 36 51
e 36 54
e 36 56
e 36 57
e 36 60
e 36 61
e 36 67
e 36 68
e 36 72
e 37 40
e 37 42
e 37 45
e 37 48
e 37 49
e 37 54
e 37 55
e 37 69
e 37 71
e 37 72
e 37 75
e 38 42
e 38 53
e 38 62
e 38 63
e 38 64
e 38 67
e 38 69
e 38 70
e 39 53
e 39 59
e 39 61
e 39 62
e 39 73
e 40 43
e 40 50
e 40 51
e 40 52
e 40 53
e 40 58
e 40 61
e 40 64
e 40 65
e 40 67
e 40 69
e 40 75
e 41 42
e 41 44
e 41 45
e 41 46
e 41 49
e 41 51
e 41 53
e 41 55
e 41 60
e 41 63
e 41 74
e 41 75
e 42 45
e 42 47
e 42 49
e 42 51
e 42 52
e 42 56
e 42 60
e 42 61
e 42 65
e 42 66
e 42 73
e 43 44
e 43 57
e 43 60
e 43 63
e 43 68
e 43 72
e 43 73
e 44 45
e 44 47
e 44 49
e 44 50
e 44 53
e 44 58
e 44 61
e 44 66
e 44 73
e 44 75
e 45 47
e 45 50
e 45 54
e 45 56
e 45 57
e 45 66
e 45 67
e 45 68
e 45 69
e 45 70
e 45 73
e 46 50
e 46 51
e 46 52
e 46 55
e 46 57
e 46 68
e 46 69
e 46 72
e 46 74
e 47 48
e 47 50
e 47 56
e 47 61
e 47 63
e 47 67
e 47 68
e 47 70
e 47 73
e 48 52
e 48 57
e 48 58
e 48 63
e 48 64
e 48 67
e 48 68
e 48 73
e 49 50
e 49 51
e 49 53
e 49 64
e 49 73
e 50 53
e 50 56
e 50 62
e 50 68
e 50 69
e 50 70
e 50 75
e 51 56
e 51 57
e 51 58
e 51 63
e 51 68
e 51 71
e 51 75
e 52 53
e 52 55
e 52 57
e 52 58
e 52 61
e 52 64
e 52 65
e 52 66
e 52 70
e 53 54
e 53 56
e 53 57
e 53 59
e 53 60
e 53 62
e 53 67
e 53 69
e 53 72
e 54 60
e 54 70
e 54 72
e 55 57
e 55 60
e 55 72
e 55 73
e 56 58
e 56 61
e 56 63
e 56 71
e 56 72
e 56 74
e 56 75
e 57 59
e 57 67
e 57 72
e 58 64
e 59 61
e 59 63
e 59 69
e 59 71
e 59 73
e 60 64
e 60 68
e 60 74
e 61 66
e 61 67
e 61 69
e 61 70
e 61 71
e 62 63
e 62 66
e 62 69
e 62 72
e 62 73
e 62 74
e 62 75
e 63 65
e 63 71
e 64 67
e 64 72
e 64 74
e 65 66
e 65 67
e 65 70
e 65 75
e 66 71
e 66 74
e 66 75
e 67 69
e 67 75
e 68 73
e 69 70
e 69 71
e 70 73
e 71 75
e 72 73
e 72 74
e 72 75
